NAME Sub
ROWS
 N  OBJ
 L  c0      
 L  c1      
 L  c2      
 L  c3      
 L  c4      
 L  c5      
 L  c6      
 L  c7      
 L  c8      
 L  c9      
COLUMNS
    X[1]      c0        1
    X[2]      c1        1
    Y[1]      OBJ       -16
    Y[1]      c0        2
    Y[1]      c1        6
    Y[1]      c2        1
    Y[1]      c3        -1
    Y[2]      OBJ       -19
    Y[2]      c0        -3
    Y[2]      c1        1
    Y[2]      c4        1
    Y[2]      c5        -1
    Y[3]      OBJ       -23
    Y[3]      c0        4
    Y[3]      c1        3
    Y[3]      c6        1
    Y[3]      c7        -1
    Y[4]      OBJ       -28
    Y[4]      c0        5
    Y[4]      c1        2
    Y[4]      c8        1
    Y[4]      c9        -1
    R         OBJ       100
    R         c0        -1
    R         c1        -1
RHS
    RHS1      c0        6
    RHS1      c1        2
    RHS1      c2        5
    RHS1      c4        5
    RHS1      c6        5
    RHS1      c8        5
BOUNDS
 UP BND1      X[1]      1
 UP BND1      X[2]      1
ENDATA
